c read Graph
c width = 2
c time = 691 ms
c width = 2
c time = 1596 ms
s td 18 3 20
b 1 1 2 12
b 2 2 3 13
b 3 3 4 14
b 4 4 5 15
b 5 5 6 16
b 6 6 7 17
b 7 7 8 18
b 8 8 9 19
b 9 9 10 20
b 10 9 19 20
b 11 8 18 19
b 12 7 17 18
b 13 6 16 17
b 14 5 15 16
b 15 4 14 15
b 16 3 13 14
b 17 2 12 13
b 18 1 11 12
1 18
1 17
2 17
2 16
3 16
3 15
4 15
4 14
5 14
5 13
6 13
6 12
7 12
7 11
8 11
8 10
9 10
